WARNING: for repeatability, setting FPU to use double precision
============================[ Problem Statistics ]=============================
|                                                                             |
|  Number of variables:        229459                                         |
|  Number of clauses:          536072                                         |
|  Parse time:                   0.31 s                                       |
|                                                                             |
============================[ Search Statistics ]==============================
| Conflicts |          ORIGINAL         |          LEARNT          | Progress |
|           |    Vars  Clauses Literals |    Limit  Clauses Lit/Cl |          |
===============================================================================
|       100 |  127448   514754  1156156 |   188743      100     16 | 44.457 % |
|       250 |  127448   514754  1156156 |   207617      250     13 | 44.457 % |
|       475 |  127448   514754  1156156 |   228379      475     23 | 44.457 % |
|       812 |  127448   514754  1156156 |   251217      812     31 | 44.457 % |
|      1318 |  127448   514754  1156156 |   276338     1318     55 | 44.457 % |
|      2077 |  127448   514754  1156156 |   303972     2077     47 | 44.457 % |
===============================================================================
restarts              : 15
conflicts             : 3006           (1276 /sec)
decisions             : 41877          (0.00 % random) (17774 /sec)
propagations          : 7756254        (3291923 /sec)
conflict literals     : 142746         (8.77 % deleted)
Memory used           : 62.00 MB
CPU time              : 2.35615 s

SATISFIABLE
